11
0 21 78 25 48 99 86 54 76 89 2 
87 0 41 14 58 18 2 69 76 11 15 
100 65 0 64 55 17 53 88 86 47 82 
50 72 88 0 98 85 6 80 50 6 40 
71 70 32 6 0 39 11 22 79 48 84 
29 47 2 72 76 0 100 13 91 38 67 
82 47 79 96 80 52 0 1 19 12 3 
84 28 74 19 67 37 1 0 26 65 87 
61 35 100 74 6 67 29 53 0 20 65 
25 62 53 29 62 61 11 97 33 0 91 
27 31 14 48 4 93 84 45 20 94 0 
